c This Formular was created for testing purposes
c
c    horn? no
c    forced? no
c    mixed sat? no
c    clause length = 3
c
p cnf
1	11	20
2	12	4
3	13	6
4	14	-13
5	15	-3
6	16	-10
7	17	-18
8	18	7
9	19	11
10	20	2
-21	31	41
22	32	7
-23	33	15
24	34	14
25	35	-7
-26	36	31
27	37	13
28	-38	26
29	39	18
30	-40	17
41	51	2
42	52	16
43	-53	21
44	54	-10
45	55	20
46	-56	10
47	-57	-8
48	58	31
49	59	11
50	-60	1
61	71	10
62	72	16
63	-73	4
64	-74	13
65	-75	17
66	-76	27
67	77	31
68	-78	15
69	-79	23
70	-80	24
81	91	16
82	92	36
83	-93	36
84	-94	-14
85	-95	21
86	-96	45
87	-97	63
88	-98	10
89	-99	27
90	-100	-3
%
0
